
Gurobi 10.0.1 (linux64) logging started Sun Nov 26 15:37:27 2023

Set parameter LogFile to value "ArtificialInstance/ExperimentV2/S2T5K1/BaRo/gurobi1.txt"
Gurobi Optimizer version 10.0.1 build v10.0.1rc0 (linux64)

CPU model: AMD EPYC 7H12 64-Core Processor, instruction set [SSE2|AVX|AVX2]
Thread count: 128 physical cores, 128 logical processors, using up to 32 threads

Academic license 656792 - for non-commercial use only - registered to b.___@student.vu.nl
Optimize a model with 1422 rows, 2161 columns and 7362 nonzeros
Model fingerprint: 0xd59ccf8f
Variable types: 1 continuous, 2160 integer (2160 binary)
Coefficient statistics:
  Matrix range     [1e+00, 4e+01]
  Objective range  [1e+00, 2e+01]
  Bounds range     [1e+00, 1e+00]
  RHS range        [1e+00, 1e+00]
Found heuristic solution: objective 609.9289584
Presolve time: 0.01s
Presolved: 1422 rows, 2161 columns, 7362 nonzeros
Variable types: 1 continuous, 2160 integer (2160 binary)

Root relaxation: objective 3.458250e+01, 1130 iterations, 0.03 seconds (0.02 work units)

    Nodes    |    Current Node    |     Objective Bounds      |     Work
 Expl Unexpl |  Obj  Depth IntInf | Incumbent    BestBd   Gap | It/Node Time

     0     0   34.58250    0  210  609.92896   34.58250  94.3%     -    0s
H    0     0                     228.5277796   34.58250  84.9%     -    0s
H    0     0                     107.3839505   34.58250  67.8%     -    0s
H    0     0                      52.1350487   34.58250  33.7%     -    0s
     0     0   39.93010    0  336   52.13505   39.93010  23.4%     -    0s
H    0     0                      51.4746057   39.93010  22.4%     -    0s
     0     0   43.37300    0  450   51.47461   43.37300  15.7%     -    0s
     0     0   43.46755    0  443   51.47461   43.46755  15.6%     -    0s
     0     0   43.50233    0  441   51.47461   43.50233  15.5%     -    0s
     0     0   43.50233    0  441   51.47461   43.50233  15.5%     -    0s
     0     0   44.89757    0  438   51.47461   44.89757  12.8%     -    0s
     0     0   44.89757    0  419   51.47461   44.89757  12.8%     -    0s
     0     0   44.89757    0  206   51.47461   44.89757  12.8%     -    0s
     0     0   44.89757    0  370   51.47461   44.89757  12.8%     -    0s
     0     0   44.89757    0  422   51.47461   44.89757  12.8%     -    0s
     0     0   44.89757    0  433   51.47461   44.89757  12.8%     -    0s
     0     0   44.89757    0  442   51.47461   44.89757  12.8%     -    0s
     0     0   45.66528    0  415   51.47461   45.66528  11.3%     -    1s
     0     0   46.14069    0  403   51.47461   46.14069  10.4%     -    1s
     0     0   46.21408    0  385   51.47461   46.21408  10.2%     -    1s
H    0     0                      51.4617219   46.99372  8.68%     -    1s
     0     0   51.46172    0  421   51.46172   51.46172  0.00%     -    1s

Cutting planes:
  Gomory: 11
  Clique: 17
  Zero half: 52
  RLT: 29

Explored 1 nodes (9112 simplex iterations) in 1.39 seconds (0.65 work units)
Thread count was 32 (of 128 available processors)

Solution count 6: 51.4617 51.4746 52.135 ... 609.929

Optimal solution found (tolerance 1.00e-04)
Best objective 5.146172189898e+01, best bound 5.146172189898e+01, gap 0.0000%
